minimize
 - 1000.0 y00  - 1000.0 y10  - 1000.0 y20  - 1000.0 y30  - 1000.0 y40  - 1000.0 y50  - 1000.0 y60  - 1000.0 y70  + 10.0 x0000  + 0.0 x0010  + 5.0 x0020  + 5.0 x0030  + 7.5 x0040  + 7.5 x0050  + 2.5 x0060  + 2.5 x0070  + 0.0 x0100  + 0.0 x0110  + 0.0 x0120  + 0.0 x0130  + 0.0 x0140  + 0.0 x0150  + 0.0 x0160  + 0.0 x0170  + 0.0 x1000  + 0.0 x1010  + 0.0 x1020  + 0.0 x1030  + 0.0 x1040  + 0.0 x1050  + 0.0 x1060  + 0.0 x1070  + 0.0 x1100  + 10.0 x1110  + 5.0 x1120  + 5.0 x1130  + 2.5 x1140  + 2.5 x1150  + 7.5 x1160  + 7.5 x1170 
subject to
bundle,0,0,0,0,0:  y00 =  +0.0 -> +x0000 =  +0.0 
bundle,0,0,1,0,0:  y00 =  +0.0 -> +x0100 =  +0.0 
bundle,0,1,0,0,0:  y00 =  +0.0 -> +x1000 =  +0.0 
bundle,0,1,1,0,0:  y00 =  +0.0 -> +x1100 =  +0.0 
bundle,1,$0,0,0:  y00 =  +1.0 -> + 100.0 x0000  + 100.0 x1000 =  +100.0 
bundle,1,$1,0,0:  y00 =  +1.0 -> + 0.0 x0100  + 0.0 x1100 =  +0.0 
bundle,0,0,0,1,0:  y10 =  +0.0 -> +x0010 =  +0.0 
bundle,0,0,1,1,0:  y10 =  +0.0 -> +x0110 =  +0.0 
bundle,0,1,0,1,0:  y10 =  +0.0 -> +x1010 =  +0.0 
bundle,0,1,1,1,0:  y10 =  +0.0 -> +x1110 =  +0.0 
bundle,1,$0,1,0:  y10 =  +1.0 -> + 0.0 x0010  + 0.0 x1010 =  +0.0 
bundle,1,$1,1,0:  y10 =  +1.0 -> + 100.0 x0110  + 100.0 x1110 =  +100.0 
bundle,0,0,0,2,0:  y20 =  +0.0 -> +x0020 =  +0.0 
bundle,0,0,1,2,0:  y20 =  +0.0 -> +x0120 =  +0.0 
bundle,0,1,0,2,0:  y20 =  +0.0 -> +x1020 =  +0.0 
bundle,0,1,1,2,0:  y20 =  +0.0 -> +x1120 =  +0.0 
bundle,1,$0,2,0:  y20 =  +1.0 -> + 50.0 x0020  + 50.0 x1020 =  +50.0 
bundle,1,$1,2,0:  y20 =  +1.0 -> + 50.0 x0120  + 50.0 x1120 =  +50.0 
bundle,0,0,0,3,0:  y30 =  +0.0 -> +x0030 =  +0.0 
bundle,0,0,1,3,0:  y30 =  +0.0 -> +x0130 =  +0.0 
bundle,0,1,0,3,0:  y30 =  +0.0 -> +x1030 =  +0.0 
bundle,0,1,1,3,0:  y30 =  +0.0 -> +x1130 =  +0.0 
bundle,1,$0,3,0:  y30 =  +1.0 -> + 50.0 x0030  + 50.0 x1030 =  +50.0 
bundle,1,$1,3,0:  y30 =  +1.0 -> + 50.0 x0130  + 50.0 x1130 =  +50.0 
bundle,0,0,0,4,0:  y40 =  +0.0 -> +x0040 =  +0.0 
bundle,0,0,1,4,0:  y40 =  +0.0 -> +x0140 =  +0.0 
bundle,0,1,0,4,0:  y40 =  +0.0 -> +x1040 =  +0.0 
bundle,0,1,1,4,0:  y40 =  +0.0 -> +x1140 =  +0.0 
bundle,1,$0,4,0:  y40 =  +1.0 -> + 75.0 x0040  + 75.0 x1040 =  +75.0 
bundle,1,$1,4,0:  y40 =  +1.0 -> + 25.0 x0140  + 25.0 x1140 =  +25.0 
bundle,0,0,0,5,0:  y50 =  +0.0 -> +x0050 =  +0.0 
bundle,0,0,1,5,0:  y50 =  +0.0 -> +x0150 =  +0.0 
bundle,0,1,0,5,0:  y50 =  +0.0 -> +x1050 =  +0.0 
bundle,0,1,1,5,0:  y50 =  +0.0 -> +x1150 =  +0.0 
bundle,1,$0,5,0:  y50 =  +1.0 -> + 75.0 x0050  + 75.0 x1050 =  +75.0 
bundle,1,$1,5,0:  y50 =  +1.0 -> + 25.0 x0150  + 25.0 x1150 =  +25.0 
bundle,0,0,0,6,0:  y60 =  +0.0 -> +x0060 =  +0.0 
bundle,0,0,1,6,0:  y60 =  +0.0 -> +x0160 =  +0.0 
bundle,0,1,0,6,0:  y60 =  +0.0 -> +x1060 =  +0.0 
bundle,0,1,1,6,0:  y60 =  +0.0 -> +x1160 =  +0.0 
bundle,1,$0,6,0:  y60 =  +1.0 -> + 25.0 x0060  + 25.0 x1060 =  +25.0 
bundle,1,$1,6,0:  y60 =  +1.0 -> + 75.0 x0160  + 75.0 x1160 =  +75.0 
bundle,0,0,0,7,0:  y70 =  +0.0 -> +x0070 =  +0.0 
bundle,0,0,1,7,0:  y70 =  +0.0 -> +x0170 =  +0.0 
bundle,0,1,0,7,0:  y70 =  +0.0 -> +x1070 =  +0.0 
bundle,0,1,1,7,0:  y70 =  +0.0 -> +x1170 =  +0.0 
bundle,1,$0,7,0:  y70 =  +1.0 -> + 25.0 x0070  + 25.0 x1070 =  +25.0 
bundle,1,$1,7,0:  y70 =  +1.0 -> + 75.0 x0170  + 75.0 x1170 =  +75.0 
provider 0,0:  + 100.0 x0000  + 0.0 x0010  + 50.0 x0020  + 50.0 x0030  + 75.0 x0040  + 75.0 x0050  + 25.0 x0060  + 25.0 x0070 <=  +250.0 
provider 0,1:  + 0.0 x0100  + 100.0 x0110  + 50.0 x0120  + 50.0 x0130  + 25.0 x0140  + 25.0 x0150  + 75.0 x0160  + 75.0 x0170 <=  +0.0 
provider 1,0:  + 100.0 x1000  + 0.0 x1010  + 50.0 x1020  + 50.0 x1030  + 75.0 x1040  + 75.0 x1050  + 25.0 x1060  + 25.0 x1070 <=  +0.0 
provider 1,1:  + 0.0 x1100  + 100.0 x1110  + 50.0 x1120  + 50.0 x1130  + 25.0 x1140  + 25.0 x1150  + 75.0 x1160  + 75.0 x1170 <=  +250.0 
winner 0,0,0:  +x0000  +x1000 <=  +1.0 
winner 0,0,1:  +x0100  +x1100 <=  +1.0 
winner 1,0,0:  +x0010  +x1010 <=  +1.0 
winner 1,0,1:  +x0110  +x1110 <=  +1.0 
winner 2,0,0:  +x0020  +x1020 <=  +1.0 
winner 2,0,1:  +x0120  +x1120 <=  +1.0 
winner 3,0,0:  +x0030  +x1030 <=  +1.0 
winner 3,0,1:  +x0130  +x1130 <=  +1.0 
winner 4,0,0:  +x0040  +x1040 <=  +1.0 
winner 4,0,1:  +x0140  +x1140 <=  +1.0 
winner 5,0,0:  +x0050  +x1050 <=  +1.0 
winner 5,0,1:  +x0150  +x1150 <=  +1.0 
winner 6,0,0:  +x0060  +x1060 <=  +1.0 
winner 6,0,1:  +x0160  +x1160 <=  +1.0 
winner 7,0,0:  +x0070  +x1070 <=  +1.0 
winner 7,0,1:  +x0170  +x1170 <=  +1.0 
bidY 0:  +y00 <=  +1.0 
bidY 1:  +y10 <=  +1.0 
bidY 2:  +y20 <=  +1.0 
bidY 3:  +y30 <=  +1.0 
bidY 4:  +y40 <=  +1.0 
bidY 5:  +y50 <=  +1.0 
bidY 6:  +y60 <=  +1.0 
bidY 7:  +y70 <=  +1.0 
bidX 0,0,0:  +x0000  +x0001 <=  +1.0 
bidX 0,0,1:  +x0010  +x0011 <=  +1.0 
bidX 0,0,2:  +x0020  +x0021 <=  +1.0 
bidX 0,0,3:  +x0030  +x0031 <=  +1.0 
bidX 0,0,4:  +x0040  +x0041 <=  +1.0 
bidX 0,0,5:  +x0050  +x0051 <=  +1.0 
bidX 0,0,6:  +x0060  +x0061 <=  +1.0 
bidX 0,0,7:  +x0070  +x0071 <=  +1.0 
bidX 0,1,0:  +x0100  +x0101 <=  +1.0 
bidX 0,1,1:  +x0110  +x0111 <=  +1.0 
bidX 0,1,2:  +x0120  +x0121 <=  +1.0 
bidX 0,1,3:  +x0130  +x0131 <=  +1.0 
bidX 0,1,4:  +x0140  +x0141 <=  +1.0 
bidX 0,1,5:  +x0150  +x0151 <=  +1.0 
bidX 0,1,6:  +x0160  +x0161 <=  +1.0 
bidX 0,1,7:  +x0170  +x0171 <=  +1.0 
bidX 0,2,0:  +x0200  +x0201 <=  +1.0 
bidX 0,2,1:  +x0210  +x0211 <=  +1.0 
bidX 0,2,2:  +x0220  +x0221 <=  +1.0 
bidX 0,2,3:  +x0230  +x0231 <=  +1.0 
bidX 0,2,4:  +x0240  +x0241 <=  +1.0 
bidX 0,2,5:  +x0250  +x0251 <=  +1.0 
bidX 0,2,6:  +x0260  +x0261 <=  +1.0 
bidX 0,2,7:  +x0270  +x0271 <=  +1.0 
bidX 1,0,0:  +x1000  +x1001 <=  +1.0 
bidX 1,0,1:  +x1010  +x1011 <=  +1.0 
bidX 1,0,2:  +x1020  +x1021 <=  +1.0 
bidX 1,0,3:  +x1030  +x1031 <=  +1.0 
bidX 1,0,4:  +x1040  +x1041 <=  +1.0 
bidX 1,0,5:  +x1050  +x1051 <=  +1.0 
bidX 1,0,6:  +x1060  +x1061 <=  +1.0 
bidX 1,0,7:  +x1070  +x1071 <=  +1.0 
bidX 1,1,0:  +x1100  +x1101 <=  +1.0 
bidX 1,1,1:  +x1110  +x1111 <=  +1.0 
bidX 1,1,2:  +x1120  +x1121 <=  +1.0 
bidX 1,1,3:  +x1130  +x1131 <=  +1.0 
bidX 1,1,4:  +x1140  +x1141 <=  +1.0 
bidX 1,1,5:  +x1150  +x1151 <=  +1.0 
bidX 1,1,6:  +x1160  +x1161 <=  +1.0 
bidX 1,1,7:  +x1170  +x1171 <=  +1.0 
bidX 1,2,0:  +x1200  +x1201 <=  +1.0 
bidX 1,2,1:  +x1210  +x1211 <=  +1.0 
bidX 1,2,2:  +x1220  +x1221 <=  +1.0 
bidX 1,2,3:  +x1230  +x1231 <=  +1.0 
bidX 1,2,4:  +x1240  +x1241 <=  +1.0 
bidX 1,2,5:  +x1250  +x1251 <=  +1.0 
bidX 1,2,6:  +x1260  +x1261 <=  +1.0 
bidX 1,2,7:  +x1270  +x1271 <=  +1.0 
binary
 y00  y10  y20  y30  y40  y50  y60  y70  x0000  x0010  x0020  x0030  x0040  x0050  x0060  x0070  x0100  x0110  x0120  x0130  x0140  x0150  x0160  x0170  x1000  x1010  x1020  x1030  x1040  x1050  x1060  x1070  x1100  x1110  x1120  x1130  x1140  x1150  x1160  x1170 
end